(declare-fun _substvar_123_ () Int)
(declare-fun _substvar_173_ () Int)
(declare-fun _substvar_186_ () Int)
(declare-const r8 Real)
(declare-const i3 Int)
(declare-const v17 Bool)
(assert (or v17 (<= 0.0 r8 0.0 0.6)))
(assert (or (<= 4.0 r8) (< 425 (* _substvar_173_ _substvar_186_ i3 _substvar_123_ (to_int 0.18490214)))))
(check-sat)
